data/lp_files/q3/85_3.lp
\ Model foo
\ LP format - for model browsing. Use MPS format to capture full model detail.
Minimize
  z
Subject To
 allocateEach[1]: x[1,1] + x[2,1] + x[3,1] + x[4,1] + x[5,1] = 1
 allocateEach[2]: x[1,2] + x[2,2] + x[3,2] + x[4,2] + x[5,2] = 1
 allocateEach[3]: x[1,3] + x[2,3] + x[3,3] + x[4,3] + x[5,3] = 1
 allocateEach[4]: x[1,4] + x[2,4] + x[3,4] + x[4,4] + x[5,4] = 1
 allocateEach[5]: x[1,5] + x[2,5] + x[3,5] + x[4,5] + x[5,5] = 1
 allocateAllCash: cashProportion[1] + cashProportion[2] + cashProportion[3]
   + cashProportion[4] + cashProportion[5] = 1
 findWorstP[1,2]: z + 0.0676956404007582 cashProportion[1]
   - 0.0676956404007582 cashProportion[2] + 0.3187110750067696 x[1,1]
   + 0.0519902518277823 x[1,2] + 0.2940360140806932 x[1,3]
   + 0.2505077173030057 x[1,4] + 0.0170593013809911 x[1,5]
   - 0.3187110750067696 x[2,1] - 0.0519902518277823 x[2,2]
   - 0.2940360140806932 x[2,3] - 0.2505077173030057 x[2,4]
   - 0.0170593013809911 x[2,5] >= 0
 findWorstP[1,3]: z + 0.0676956404007582 cashProportion[1]
   - 0.0676956404007582 cashProportion[3] + 0.3187110750067696 x[1,1]
   + 0.0519902518277823 x[1,2] + 0.2940360140806932 x[1,3]
   + 0.2505077173030057 x[1,4] + 0.0170593013809911 x[1,5]
   - 0.3187110750067696 x[3,1] - 0.0519902518277823 x[3,2]
   - 0.2940360140806932 x[3,3] - 0.2505077173030057 x[3,4]
   - 0.0170593013809911 x[3,5] >= 0
 findWorstP[1,4]: z + 0.0676956404007582 cashProportion[1]
   - 0.0676956404007582 cashProportion[4] + 0.3187110750067696 x[1,1]
   + 0.0519902518277823 x[1,2] + 0.2940360140806932 x[1,3]
   + 0.2505077173030057 x[1,4] + 0.0170593013809911 x[1,5]
   - 0.3187110750067696 x[4,1] - 0.0519902518277823 x[4,2]
   - 0.2940360140806932 x[4,3] - 0.2505077173030057 x[4,4]
   - 0.0170593013809911 x[4,5] >= 0
 findWorstP[1,5]: z + 0.0676956404007582 cashProportion[1]
   - 0.0676956404007582 cashProportion[5] + 0.3187110750067696 x[1,1]
   + 0.0519902518277823 x[1,2] + 0.2940360140806932 x[1,3]
   + 0.2505077173030057 x[1,4] + 0.0170593013809911 x[1,5]
   - 0.3187110750067696 x[5,1] - 0.0519902518277823 x[5,2]
   - 0.2940360140806932 x[5,3] - 0.2505077173030057 x[5,4]
   - 0.0170593013809911 x[5,5] >= 0
 findWorstP[2,1]: z - 0.0767400813444862 cashProportion[1]
   + 0.0767400813444862 cashProportion[2] - 0.0358759880285473 x[1,1]
   - 0.2090016115417082 x[1,2] - 0.3107973294451692 x[1,3]
   - 0.1930780446627273 x[1,4] - 0.1745069449773617 x[1,5]
   + 0.0358759880285473 x[2,1] + 0.2090016115417082 x[2,2]
   + 0.3107973294451692 x[2,3] + 0.1930780446627273 x[2,4]
   + 0.1745069449773617 x[2,5] >= 0
 findWorstP[2,3]: z + 0.0767400813444862 cashProportion[2]
   - 0.0767400813444862 cashProportion[3] + 0.0358759880285473 x[2,1]
   + 0.2090016115417082 x[2,2] + 0.3107973294451692 x[2,3]
   + 0.1930780446627273 x[2,4] + 0.1745069449773617 x[2,5]
   - 0.0358759880285473 x[3,1] - 0.2090016115417082 x[3,2]
   - 0.3107973294451692 x[3,3] - 0.1930780446627273 x[3,4]
   - 0.1745069449773617 x[3,5] >= 0
 findWorstP[2,4]: z + 0.0767400813444862 cashProportion[2]
   - 0.0767400813444862 cashProportion[4] + 0.0358759880285473 x[2,1]
   + 0.2090016115417082 x[2,2] + 0.3107973294451692 x[2,3]
   + 0.1930780446627273 x[2,4] + 0.1745069449773617 x[2,5]
   - 0.0358759880285473 x[4,1] - 0.2090016115417082 x[4,2]
   - 0.3107973294451692 x[4,3] - 0.1930780446627273 x[4,4]
   - 0.1745069449773617 x[4,5] >= 0
 findWorstP[2,5]: z + 0.0767400813444862 cashProportion[2]
   - 0.0767400813444862 cashProportion[5] + 0.0358759880285473 x[2,1]
   + 0.2090016115417082 x[2,2] + 0.3107973294451692 x[2,3]
   + 0.1930780446627273 x[2,4] + 0.1745069449773617 x[2,5]
   - 0.0358759880285473 x[5,1] - 0.2090016115417082 x[5,2]
   - 0.3107973294451692 x[5,3] - 0.1930780446627273 x[5,4]
   - 0.1745069449773617 x[5,5] >= 0
 findWorstP[3,1]: z - 0.059708621925006 cashProportion[1]
   + 0.059708621925006 cashProportion[3] - 0.2191903510866969 x[1,1]
   - 0.2607176976355385 x[1,2] - 0.1753045139718175 x[1,3]
   - 0.0688440410795319 x[1,4] - 0.2162347743014091 x[1,5]
   + 0.2191903510866969 x[3,1] + 0.2607176976355385 x[3,2]
   + 0.1753045139718175 x[3,3] + 0.0688440410795319 x[3,4]
   + 0.2162347743014091 x[3,5] >= 0
 findWorstP[3,2]: z - 0.059708621925006 cashProportion[2]
   + 0.059708621925006 cashProportion[3] - 0.2191903510866969 x[2,1]
   - 0.2607176976355385 x[2,2] - 0.1753045139718175 x[2,3]
   - 0.0688440410795319 x[2,4] - 0.2162347743014091 x[2,5]
   + 0.2191903510866969 x[3,1] + 0.2607176976355385 x[3,2]
   + 0.1753045139718175 x[3,3] + 0.0688440410795319 x[3,4]
   + 0.2162347743014091 x[3,5] >= 0
 findWorstP[3,4]: z + 0.059708621925006 cashProportion[3]
   - 0.059708621925006 cashProportion[4] + 0.2191903510866969 x[3,1]
   + 0.2607176976355385 x[3,2] + 0.1753045139718175 x[3,3]
   + 0.0688440410795319 x[3,4] + 0.2162347743014091 x[3,5]
   - 0.2191903510866969 x[4,1] - 0.2607176976355385 x[4,2]
   - 0.1753045139718175 x[4,3] - 0.0688440410795319 x[4,4]
   - 0.2162347743014091 x[4,5] >= 0
 findWorstP[3,5]: z + 0.059708621925006 cashProportion[3]
   - 0.059708621925006 cashProportion[5] + 0.2191903510866969 x[3,1]
   + 0.2607176976355385 x[3,2] + 0.1753045139718175 x[3,3]
   + 0.0688440410795319 x[3,4] + 0.2162347743014091 x[3,5]
   - 0.2191903510866969 x[5,1] - 0.2607176976355385 x[5,2]
   - 0.1753045139718175 x[5,3] - 0.0688440410795319 x[5,4]
   - 0.2162347743014091 x[5,5] >= 0
 findWorstP[4,1]: z - 0.0536624631070566 cashProportion[1]
   + 0.0536624631070566 cashProportion[4] - 0.2201502548966998 x[1,1]
   - 0.2628119130668098 x[1,2] - 0.2297558357928629 x[1,3]
   - 0.0884894016635363 x[1,4] - 0.1451301314730346 x[1,5]
   + 0.2201502548966998 x[4,1] + 0.2628119130668098 x[4,2]
   + 0.2297558357928629 x[4,3] + 0.0884894016635363 x[4,4]
   + 0.1451301314730346 x[4,5] >= 0
 findWorstP[4,2]: z - 0.0536624631070566 cashProportion[2]
   + 0.0536624631070566 cashProportion[4] - 0.2201502548966998 x[2,1]
   - 0.2628119130668098 x[2,2] - 0.2297558357928629 x[2,3]
   - 0.0884894016635363 x[2,4] - 0.1451301314730346 x[2,5]
   + 0.2201502548966998 x[4,1] + 0.2628119130668098 x[4,2]
   + 0.2297558357928629 x[4,3] + 0.0884894016635363 x[4,4]
   + 0.1451301314730346 x[4,5] >= 0
 findWorstP[4,3]: z - 0.0536624631070566 cashProportion[3]
   + 0.0536624631070566 cashProportion[4] - 0.2201502548966998 x[3,1]
   - 0.2628119130668098 x[3,2] - 0.2297558357928629 x[3,3]
   - 0.0884894016635363 x[3,4] - 0.1451301314730346 x[3,5]
   + 0.2201502548966998 x[4,1] + 0.2628119130668098 x[4,2]
   + 0.2297558357928629 x[4,3] + 0.0884894016635363 x[4,4]
   + 0.1451301314730346 x[4,5] >= 0
 findWorstP[4,5]: z + 0.0536624631070566 cashProportion[4]
   - 0.0536624631070566 cashProportion[5] + 0.2201502548966998 x[4,1]
   + 0.2628119130668098 x[4,2] + 0.2297558357928629 x[4,3]
   + 0.0884894016635363 x[4,4] + 0.1451301314730346 x[4,5]
   - 0.2201502548966998 x[5,1] - 0.2628119130668098 x[5,2]
   - 0.2297558357928629 x[5,3] - 0.0884894016635363 x[5,4]
   - 0.1451301314730346 x[5,5] >= 0
 findWorstP[5,1]: z - 0.0516368893937829 cashProportion[1]
   + 0.0516368893937829 cashProportion[5] - 0.2337085613962615 x[1,1]
   - 0.0806826396777858 x[1,2] - 0.2294226995765775 x[1,3]
   - 0.2316430858205102 x[1,4] - 0.1729061241350821 x[1,5]
   + 0.2337085613962615 x[5,1] + 0.0806826396777858 x[5,2]
   + 0.2294226995765775 x[5,3] + 0.2316430858205102 x[5,4]
   + 0.1729061241350821 x[5,5] >= 0
 findWorstP[5,2]: z - 0.0516368893937829 cashProportion[2]
   + 0.0516368893937829 cashProportion[5] - 0.2337085613962615 x[2,1]
   - 0.0806826396777858 x[2,2] - 0.2294226995765775 x[2,3]
   - 0.2316430858205102 x[2,4] - 0.1729061241350821 x[2,5]
   + 0.2337085613962615 x[5,1] + 0.0806826396777858 x[5,2]
   + 0.2294226995765775 x[5,3] + 0.2316430858205102 x[5,4]
   + 0.1729061241350821 x[5,5] >= 0
 findWorstP[5,3]: z - 0.0516368893937829 cashProportion[3]
   + 0.0516368893937829 cashProportion[5] - 0.2337085613962615 x[3,1]
   - 0.0806826396777858 x[3,2] - 0.2294226995765775 x[3,3]
   - 0.2316430858205102 x[3,4] - 0.1729061241350821 x[3,5]
   + 0.2337085613962615 x[5,1] + 0.0806826396777858 x[5,2]
   + 0.2294226995765775 x[5,3] + 0.2316430858205102 x[5,4]
   + 0.1729061241350821 x[5,5] >= 0
 findWorstP[5,4]: z - 0.0516368893937829 cashProportion[4]
   + 0.0516368893937829 cashProportion[5] - 0.2337085613962615 x[4,1]
   - 0.0806826396777858 x[4,2] - 0.2294226995765775 x[4,3]
   - 0.2316430858205102 x[4,4] - 0.1729061241350821 x[4,5]
   + 0.2337085613962615 x[5,1] + 0.0806826396777858 x[5,2]
   + 0.2294226995765775 x[5,3] + 0.2316430858205102 x[5,4]
   + 0.1729061241350821 x[5,5] >= 0
Bounds
 z <= 1
 -infinity <= cashProportion[1] <= 1
 -infinity <= cashProportion[2] <= 1
 -infinity <= cashProportion[3] <= 1
 -infinity <= cashProportion[4] <= 1
 -infinity <= cashProportion[5] <= 1
Binaries
 x[1,1] x[1,2] x[1,3] x[1,4] x[1,5] x[2,1] x[2,2] x[2,3] x[2,4] x[2,5]
 x[3,1] x[3,2] x[3,3] x[3,4] x[3,5] x[4,1] x[4,2] x[4,3] x[4,4] x[4,5]
 x[5,1] x[5,2] x[5,3] x[5,4] x[5,5]
End
