data/mps_files/pEFS/85_3.mps
NAME foo
ROWS
 N  OBJ
 E  allocateEach[1]
 E  allocateEach[2]
 E  allocateEach[3]
 E  allocateEach[4]
 E  allocateEach[5]
 E  allocateAllCash
 G  findWorstP[1,2]
 G  findWorstP[1,3]
 G  findWorstP[1,4]
 G  findWorstP[1,5]
 G  findWorstP[2,1]
 G  findWorstP[2,3]
 G  findWorstP[2,4]
 G  findWorstP[2,5]
 G  findWorstP[3,1]
 G  findWorstP[3,2]
 G  findWorstP[3,4]
 G  findWorstP[3,5]
 G  findWorstP[4,1]
 G  findWorstP[4,2]
 G  findWorstP[4,3]
 G  findWorstP[4,5]
 G  findWorstP[5,1]
 G  findWorstP[5,2]
 G  findWorstP[5,3]
 G  findWorstP[5,4]
COLUMNS
    z         OBJ       1
    z         findWorstP[1,2]  1
    z         findWorstP[1,3]  1
    z         findWorstP[1,4]  1
    z         findWorstP[1,5]  1
    z         findWorstP[2,1]  1
    z         findWorstP[2,3]  1
    z         findWorstP[2,4]  1
    z         findWorstP[2,5]  1
    z         findWorstP[3,1]  1
    z         findWorstP[3,2]  1
    z         findWorstP[3,4]  1
    z         findWorstP[3,5]  1
    z         findWorstP[4,1]  1
    z         findWorstP[4,2]  1
    z         findWorstP[4,3]  1
    z         findWorstP[4,5]  1
    z         findWorstP[5,1]  1
    z         findWorstP[5,2]  1
    z         findWorstP[5,3]  1
    z         findWorstP[5,4]  1
    cashProportion[1]  allocateAllCash  1
    cashProportion[1]  findWorstP[1,2]  6.7695640400758192e-02
    cashProportion[1]  findWorstP[1,3]  6.7695640400758192e-02
    cashProportion[1]  findWorstP[1,4]  6.7695640400758192e-02
    cashProportion[1]  findWorstP[1,5]  6.7695640400758192e-02
    cashProportion[1]  findWorstP[2,1]  -7.6740081344486233e-02
    cashProportion[1]  findWorstP[3,1]  -5.9708621925005971e-02
    cashProportion[1]  findWorstP[4,1]  -5.3662463107056614e-02
    cashProportion[1]  findWorstP[5,1]  -5.1636889393782928e-02
    cashProportion[2]  allocateAllCash  1
    cashProportion[2]  findWorstP[1,2]  -6.7695640400758192e-02
    cashProportion[2]  findWorstP[2,1]  7.6740081344486233e-02
    cashProportion[2]  findWorstP[2,3]  7.6740081344486233e-02
    cashProportion[2]  findWorstP[2,4]  7.6740081344486233e-02
    cashProportion[2]  findWorstP[2,5]  7.6740081344486233e-02
    cashProportion[2]  findWorstP[3,2]  -5.9708621925005971e-02
    cashProportion[2]  findWorstP[4,2]  -5.3662463107056614e-02
    cashProportion[2]  findWorstP[5,2]  -5.1636889393782928e-02
    cashProportion[3]  allocateAllCash  1
    cashProportion[3]  findWorstP[1,3]  -6.7695640400758192e-02
    cashProportion[3]  findWorstP[2,3]  -7.6740081344486233e-02
    cashProportion[3]  findWorstP[3,1]  5.9708621925005971e-02
    cashProportion[3]  findWorstP[3,2]  5.9708621925005971e-02
    cashProportion[3]  findWorstP[3,4]  5.9708621925005971e-02
    cashProportion[3]  findWorstP[3,5]  5.9708621925005971e-02
    cashProportion[3]  findWorstP[4,3]  -5.3662463107056614e-02
    cashProportion[3]  findWorstP[5,3]  -5.1636889393782928e-02
    cashProportion[4]  allocateAllCash  1
    cashProportion[4]  findWorstP[1,4]  -6.7695640400758192e-02
    cashProportion[4]  findWorstP[2,4]  -7.6740081344486233e-02
    cashProportion[4]  findWorstP[3,4]  -5.9708621925005971e-02
    cashProportion[4]  findWorstP[4,1]  5.3662463107056614e-02
    cashProportion[4]  findWorstP[4,2]  5.3662463107056614e-02
    cashProportion[4]  findWorstP[4,3]  5.3662463107056614e-02
    cashProportion[4]  findWorstP[4,5]  5.3662463107056614e-02
    cashProportion[4]  findWorstP[5,4]  -5.1636889393782928e-02
    cashProportion[5]  allocateAllCash  1
    cashProportion[5]  findWorstP[1,5]  -6.7695640400758192e-02
    cashProportion[5]  findWorstP[2,5]  -7.6740081344486233e-02
    cashProportion[5]  findWorstP[3,5]  -5.9708621925005971e-02
    cashProportion[5]  findWorstP[4,5]  -5.3662463107056614e-02
    cashProportion[5]  findWorstP[5,1]  5.1636889393782928e-02
    cashProportion[5]  findWorstP[5,2]  5.1636889393782928e-02
    cashProportion[5]  findWorstP[5,3]  5.1636889393782928e-02
    cashProportion[5]  findWorstP[5,4]  5.1636889393782928e-02
    MARKER    'MARKER'                 'INTORG'
    x[1,1]    allocateEach[1]  1
    x[1,1]    findWorstP[1,2]  3.1871107500676960e-01
    x[1,1]    findWorstP[1,3]  3.1871107500676960e-01
    x[1,1]    findWorstP[1,4]  3.1871107500676960e-01
    x[1,1]    findWorstP[1,5]  3.1871107500676960e-01
    x[1,1]    findWorstP[2,1]  -3.5875988028547308e-02
    x[1,1]    findWorstP[3,1]  -2.1919035108669691e-01
    x[1,1]    findWorstP[4,1]  -2.2015025489669976e-01
    x[1,1]    findWorstP[5,1]  -2.3370856139626153e-01
    x[1,2]    allocateEach[2]  1
    x[1,2]    findWorstP[1,2]  5.1990251827782288e-02
    x[1,2]    findWorstP[1,3]  5.1990251827782288e-02
    x[1,2]    findWorstP[1,4]  5.1990251827782288e-02
    x[1,2]    findWorstP[1,5]  5.1990251827782288e-02
    x[1,2]    findWorstP[2,1]  -2.0900161154170821e-01
    x[1,2]    findWorstP[3,1]  -2.6071769763553854e-01
    x[1,2]    findWorstP[4,1]  -2.6281191306680979e-01
    x[1,2]    findWorstP[5,1]  -8.0682639677785828e-02
    x[1,3]    allocateEach[3]  1
    x[1,3]    findWorstP[1,2]  2.9403601408069324e-01
    x[1,3]    findWorstP[1,3]  2.9403601408069324e-01
    x[1,3]    findWorstP[1,4]  2.9403601408069324e-01
    x[1,3]    findWorstP[1,5]  2.9403601408069324e-01
    x[1,3]    findWorstP[2,1]  -3.1079732944516925e-01
    x[1,3]    findWorstP[3,1]  -1.7530451397181754e-01
    x[1,3]    findWorstP[4,1]  -2.2975583579286288e-01
    x[1,3]    findWorstP[5,1]  -2.2942269957657752e-01
    x[1,4]    allocateEach[4]  1
    x[1,4]    findWorstP[1,2]  2.5050771730300569e-01
    x[1,4]    findWorstP[1,3]  2.5050771730300569e-01
    x[1,4]    findWorstP[1,4]  2.5050771730300569e-01
    x[1,4]    findWorstP[1,5]  2.5050771730300569e-01
    x[1,4]    findWorstP[2,1]  -1.9307804466272732e-01
    x[1,4]    findWorstP[3,1]  -6.8844041079531876e-02
    x[1,4]    findWorstP[4,1]  -8.8489401663536346e-02
    x[1,4]    findWorstP[5,1]  -2.3164308582051021e-01
    x[1,5]    allocateEach[5]  1
    x[1,5]    findWorstP[1,2]  1.7059301380991064e-02
    x[1,5]    findWorstP[1,3]  1.7059301380991064e-02
    x[1,5]    findWorstP[1,4]  1.7059301380991064e-02
    x[1,5]    findWorstP[1,5]  1.7059301380991064e-02
    x[1,5]    findWorstP[2,1]  -1.7450694497736166e-01
    x[1,5]    findWorstP[3,1]  -2.1623477430140914e-01
    x[1,5]    findWorstP[4,1]  -1.4513013147303463e-01
    x[1,5]    findWorstP[5,1]  -1.7290612413508211e-01
    x[2,1]    allocateEach[1]  1
    x[2,1]    findWorstP[1,2]  -3.1871107500676960e-01
    x[2,1]    findWorstP[2,1]  3.5875988028547308e-02
    x[2,1]    findWorstP[2,3]  3.5875988028547308e-02
    x[2,1]    findWorstP[2,4]  3.5875988028547308e-02
    x[2,1]    findWorstP[2,5]  3.5875988028547308e-02
    x[2,1]    findWorstP[3,2]  -2.1919035108669691e-01
    x[2,1]    findWorstP[4,2]  -2.2015025489669976e-01
    x[2,1]    findWorstP[5,2]  -2.3370856139626153e-01
    x[2,2]    allocateEach[2]  1
    x[2,2]    findWorstP[1,2]  -5.1990251827782288e-02
    x[2,2]    findWorstP[2,1]  2.0900161154170821e-01
    x[2,2]    findWorstP[2,3]  2.0900161154170821e-01
    x[2,2]    findWorstP[2,4]  2.0900161154170821e-01
    x[2,2]    findWorstP[2,5]  2.0900161154170821e-01
    x[2,2]    findWorstP[3,2]  -2.6071769763553854e-01
    x[2,2]    findWorstP[4,2]  -2.6281191306680979e-01
    x[2,2]    findWorstP[5,2]  -8.0682639677785828e-02
    x[2,3]    allocateEach[3]  1
    x[2,3]    findWorstP[1,2]  -2.9403601408069324e-01
    x[2,3]    findWorstP[2,1]  3.1079732944516925e-01
    x[2,3]    findWorstP[2,3]  3.1079732944516925e-01
    x[2,3]    findWorstP[2,4]  3.1079732944516925e-01
    x[2,3]    findWorstP[2,5]  3.1079732944516925e-01
    x[2,3]    findWorstP[3,2]  -1.7530451397181754e-01
    x[2,3]    findWorstP[4,2]  -2.2975583579286288e-01
    x[2,3]    findWorstP[5,2]  -2.2942269957657752e-01
    x[2,4]    allocateEach[4]  1
    x[2,4]    findWorstP[1,2]  -2.5050771730300569e-01
    x[2,4]    findWorstP[2,1]  1.9307804466272732e-01
    x[2,4]    findWorstP[2,3]  1.9307804466272732e-01
    x[2,4]    findWorstP[2,4]  1.9307804466272732e-01
    x[2,4]    findWorstP[2,5]  1.9307804466272732e-01
    x[2,4]    findWorstP[3,2]  -6.8844041079531876e-02
    x[2,4]    findWorstP[4,2]  -8.8489401663536346e-02
    x[2,4]    findWorstP[5,2]  -2.3164308582051021e-01
    x[2,5]    allocateEach[5]  1
    x[2,5]    findWorstP[1,2]  -1.7059301380991064e-02
    x[2,5]    findWorstP[2,1]  1.7450694497736166e-01
    x[2,5]    findWorstP[2,3]  1.7450694497736166e-01
    x[2,5]    findWorstP[2,4]  1.7450694497736166e-01
    x[2,5]    findWorstP[2,5]  1.7450694497736166e-01
    x[2,5]    findWorstP[3,2]  -2.1623477430140914e-01
    x[2,5]    findWorstP[4,2]  -1.4513013147303463e-01
    x[2,5]    findWorstP[5,2]  -1.7290612413508211e-01
    x[3,1]    allocateEach[1]  1
    x[3,1]    findWorstP[1,3]  -3.1871107500676960e-01
    x[3,1]    findWorstP[2,3]  -3.5875988028547308e-02
    x[3,1]    findWorstP[3,1]  2.1919035108669691e-01
    x[3,1]    findWorstP[3,2]  2.1919035108669691e-01
    x[3,1]    findWorstP[3,4]  2.1919035108669691e-01
    x[3,1]    findWorstP[3,5]  2.1919035108669691e-01
    x[3,1]    findWorstP[4,3]  -2.2015025489669976e-01
    x[3,1]    findWorstP[5,3]  -2.3370856139626153e-01
    x[3,2]    allocateEach[2]  1
    x[3,2]    findWorstP[1,3]  -5.1990251827782288e-02
    x[3,2]    findWorstP[2,3]  -2.0900161154170821e-01
    x[3,2]    findWorstP[3,1]  2.6071769763553854e-01
    x[3,2]    findWorstP[3,2]  2.6071769763553854e-01
    x[3,2]    findWorstP[3,4]  2.6071769763553854e-01
    x[3,2]    findWorstP[3,5]  2.6071769763553854e-01
    x[3,2]    findWorstP[4,3]  -2.6281191306680979e-01
    x[3,2]    findWorstP[5,3]  -8.0682639677785828e-02
    x[3,3]    allocateEach[3]  1
    x[3,3]    findWorstP[1,3]  -2.9403601408069324e-01
    x[3,3]    findWorstP[2,3]  -3.1079732944516925e-01
    x[3,3]    findWorstP[3,1]  1.7530451397181754e-01
    x[3,3]    findWorstP[3,2]  1.7530451397181754e-01
    x[3,3]    findWorstP[3,4]  1.7530451397181754e-01
    x[3,3]    findWorstP[3,5]  1.7530451397181754e-01
    x[3,3]    findWorstP[4,3]  -2.2975583579286288e-01
    x[3,3]    findWorstP[5,3]  -2.2942269957657752e-01
    x[3,4]    allocateEach[4]  1
    x[3,4]    findWorstP[1,3]  -2.5050771730300569e-01
    x[3,4]    findWorstP[2,3]  -1.9307804466272732e-01
    x[3,4]    findWorstP[3,1]  6.8844041079531876e-02
    x[3,4]    findWorstP[3,2]  6.8844041079531876e-02
    x[3,4]    findWorstP[3,4]  6.8844041079531876e-02
    x[3,4]    findWorstP[3,5]  6.8844041079531876e-02
    x[3,4]    findWorstP[4,3]  -8.8489401663536346e-02
    x[3,4]    findWorstP[5,3]  -2.3164308582051021e-01
    x[3,5]    allocateEach[5]  1
    x[3,5]    findWorstP[1,3]  -1.7059301380991064e-02
    x[3,5]    findWorstP[2,3]  -1.7450694497736166e-01
    x[3,5]    findWorstP[3,1]  2.1623477430140914e-01
    x[3,5]    findWorstP[3,2]  2.1623477430140914e-01
    x[3,5]    findWorstP[3,4]  2.1623477430140914e-01
    x[3,5]    findWorstP[3,5]  2.1623477430140914e-01
    x[3,5]    findWorstP[4,3]  -1.4513013147303463e-01
    x[3,5]    findWorstP[5,3]  -1.7290612413508211e-01
    x[4,1]    allocateEach[1]  1
    x[4,1]    findWorstP[1,4]  -3.1871107500676960e-01
    x[4,1]    findWorstP[2,4]  -3.5875988028547308e-02
    x[4,1]    findWorstP[3,4]  -2.1919035108669691e-01
    x[4,1]    findWorstP[4,1]  2.2015025489669976e-01
    x[4,1]    findWorstP[4,2]  2.2015025489669976e-01
    x[4,1]    findWorstP[4,3]  2.2015025489669976e-01
    x[4,1]    findWorstP[4,5]  2.2015025489669976e-01
    x[4,1]    findWorstP[5,4]  -2.3370856139626153e-01
    x[4,2]    allocateEach[2]  1
    x[4,2]    findWorstP[1,4]  -5.1990251827782288e-02
    x[4,2]    findWorstP[2,4]  -2.0900161154170821e-01
    x[4,2]    findWorstP[3,4]  -2.6071769763553854e-01
    x[4,2]    findWorstP[4,1]  2.6281191306680979e-01
    x[4,2]    findWorstP[4,2]  2.6281191306680979e-01
    x[4,2]    findWorstP[4,3]  2.6281191306680979e-01
    x[4,2]    findWorstP[4,5]  2.6281191306680979e-01
    x[4,2]    findWorstP[5,4]  -8.0682639677785828e-02
    x[4,3]    allocateEach[3]  1
    x[4,3]    findWorstP[1,4]  -2.9403601408069324e-01
    x[4,3]    findWorstP[2,4]  -3.1079732944516925e-01
    x[4,3]    findWorstP[3,4]  -1.7530451397181754e-01
    x[4,3]    findWorstP[4,1]  2.2975583579286288e-01
    x[4,3]    findWorstP[4,2]  2.2975583579286288e-01
    x[4,3]    findWorstP[4,3]  2.2975583579286288e-01
    x[4,3]    findWorstP[4,5]  2.2975583579286288e-01
    x[4,3]    findWorstP[5,4]  -2.2942269957657752e-01
    x[4,4]    allocateEach[4]  1
    x[4,4]    findWorstP[1,4]  -2.5050771730300569e-01
    x[4,4]    findWorstP[2,4]  -1.9307804466272732e-01
    x[4,4]    findWorstP[3,4]  -6.8844041079531876e-02
    x[4,4]    findWorstP[4,1]  8.8489401663536346e-02
    x[4,4]    findWorstP[4,2]  8.8489401663536346e-02
    x[4,4]    findWorstP[4,3]  8.8489401663536346e-02
    x[4,4]    findWorstP[4,5]  8.8489401663536346e-02
    x[4,4]    findWorstP[5,4]  -2.3164308582051021e-01
    x[4,5]    allocateEach[5]  1
    x[4,5]    findWorstP[1,4]  -1.7059301380991064e-02
    x[4,5]    findWorstP[2,4]  -1.7450694497736166e-01
    x[4,5]    findWorstP[3,4]  -2.1623477430140914e-01
    x[4,5]    findWorstP[4,1]  1.4513013147303463e-01
    x[4,5]    findWorstP[4,2]  1.4513013147303463e-01
    x[4,5]    findWorstP[4,3]  1.4513013147303463e-01
    x[4,5]    findWorstP[4,5]  1.4513013147303463e-01
    x[4,5]    findWorstP[5,4]  -1.7290612413508211e-01
    x[5,1]    allocateEach[1]  1
    x[5,1]    findWorstP[1,5]  -3.1871107500676960e-01
    x[5,1]    findWorstP[2,5]  -3.5875988028547308e-02
    x[5,1]    findWorstP[3,5]  -2.1919035108669691e-01
    x[5,1]    findWorstP[4,5]  -2.2015025489669976e-01
    x[5,1]    findWorstP[5,1]  2.3370856139626153e-01
    x[5,1]    findWorstP[5,2]  2.3370856139626153e-01
    x[5,1]    findWorstP[5,3]  2.3370856139626153e-01
    x[5,1]    findWorstP[5,4]  2.3370856139626153e-01
    x[5,2]    allocateEach[2]  1
    x[5,2]    findWorstP[1,5]  -5.1990251827782288e-02
    x[5,2]    findWorstP[2,5]  -2.0900161154170821e-01
    x[5,2]    findWorstP[3,5]  -2.6071769763553854e-01
    x[5,2]    findWorstP[4,5]  -2.6281191306680979e-01
    x[5,2]    findWorstP[5,1]  8.0682639677785828e-02
    x[5,2]    findWorstP[5,2]  8.0682639677785828e-02
    x[5,2]    findWorstP[5,3]  8.0682639677785828e-02
    x[5,2]    findWorstP[5,4]  8.0682639677785828e-02
    x[5,3]    allocateEach[3]  1
    x[5,3]    findWorstP[1,5]  -2.9403601408069324e-01
    x[5,3]    findWorstP[2,5]  -3.1079732944516925e-01
    x[5,3]    findWorstP[3,5]  -1.7530451397181754e-01
    x[5,3]    findWorstP[4,5]  -2.2975583579286288e-01
    x[5,3]    findWorstP[5,1]  2.2942269957657752e-01
    x[5,3]    findWorstP[5,2]  2.2942269957657752e-01
    x[5,3]    findWorstP[5,3]  2.2942269957657752e-01
    x[5,3]    findWorstP[5,4]  2.2942269957657752e-01
    x[5,4]    allocateEach[4]  1
    x[5,4]    findWorstP[1,5]  -2.5050771730300569e-01
    x[5,4]    findWorstP[2,5]  -1.9307804466272732e-01
    x[5,4]    findWorstP[3,5]  -6.8844041079531876e-02
    x[5,4]    findWorstP[4,5]  -8.8489401663536346e-02
    x[5,4]    findWorstP[5,1]  2.3164308582051021e-01
    x[5,4]    findWorstP[5,2]  2.3164308582051021e-01
    x[5,4]    findWorstP[5,3]  2.3164308582051021e-01
    x[5,4]    findWorstP[5,4]  2.3164308582051021e-01
    x[5,5]    allocateEach[5]  1
    x[5,5]    findWorstP[1,5]  -1.7059301380991064e-02
    x[5,5]    findWorstP[2,5]  -1.7450694497736166e-01
    x[5,5]    findWorstP[3,5]  -2.1623477430140914e-01
    x[5,5]    findWorstP[4,5]  -1.4513013147303463e-01
    x[5,5]    findWorstP[5,1]  1.7290612413508211e-01
    x[5,5]    findWorstP[5,2]  1.7290612413508211e-01
    x[5,5]    findWorstP[5,3]  1.7290612413508211e-01
    x[5,5]    findWorstP[5,4]  1.7290612413508211e-01
    MARKER    'MARKER'                 'INTEND'
RHS
    RHS1      allocateEach[1]  1
    RHS1      allocateEach[2]  1
    RHS1      allocateEach[3]  1
    RHS1      allocateEach[4]  1
    RHS1      allocateEach[5]  1
    RHS1      allocateAllCash  1
BOUNDS
 UP BND1      z         1
 MI BND1      cashProportion[1]
 UP BND1      cashProportion[1]  1
 MI BND1      cashProportion[2]
 UP BND1      cashProportion[2]  1
 MI BND1      cashProportion[3]
 UP BND1      cashProportion[3]  1
 MI BND1      cashProportion[4]
 UP BND1      cashProportion[4]  1
 MI BND1      cashProportion[5]
 UP BND1      cashProportion[5]  1
 BV BND1      x[1,1]  
 BV BND1      x[1,2]  
 BV BND1      x[1,3]  
 BV BND1      x[1,4]  
 BV BND1      x[1,5]  
 BV BND1      x[2,1]  
 BV BND1      x[2,2]  
 BV BND1      x[2,3]  
 BV BND1      x[2,4]  
 BV BND1      x[2,5]  
 BV BND1      x[3,1]  
 BV BND1      x[3,2]  
 BV BND1      x[3,3]  
 BV BND1      x[3,4]  
 BV BND1      x[3,5]  
 BV BND1      x[4,1]  
 BV BND1      x[4,2]  
 BV BND1      x[4,3]  
 BV BND1      x[4,4]  
 BV BND1      x[4,5]  
 BV BND1      x[5,1]  
 BV BND1      x[5,2]  
 BV BND1      x[5,3]  
 BV BND1      x[5,4]  
 BV BND1      x[5,5]  
ENDATA
